p cnf 10 50
10 -9 -3 0
-4 -6 -2 0
9 10 -2 0
3 4 2 0
-10 -1 2 0
6 1 -10 0
-7 -3 -5 0
-5 6 9 0
3 5 -6 0
8 -7 6 0
-10 3 1 0
9 2 8 0
2 6 4 0
-6 -4 -8 0
-7 -1 8 0
-9 8 1 0
6 -9 5 0
6 10 1 0
-1 -2 6 0
3 5 7 0
2 7 6 0
-7 -2 -8 0
6 -3 -1 0
5 8 2 0
-1 -6 2 0
-9 -6 2 0
-1 8 -10 0
1 -8 -10 0
5 1 2 0
6 8 3 0
7 -2 -6 0
7 -6 5 0
-7 8 -2 0
-10 -1 -3 0
-8 -10 9 0
3 -10 2 0
-4 5 2 0
-3 8 -6 0
5 -8 9 0
3 1 -2 0
4 -3 7 0
-2 -4 -1 0
9 7 -1 0
-1 8 -5 0
-10 -9 -2 0
2 10 1 0
-10 9 4 0
6 2 7 0
10 5 -7 0
-4 -10 -7 0
